NAME : 10_3_3_1_(49).dat
COMMENT : Henke, Speranza, Wäscher, 2015
TYPE : MCVRP
DIMENSION : 11
EDGE_WEIGHT_TYPE : DISTANCE_MATRIX
CAPACITY : 1000
VEHICLES : 3
PRODUCT TYPES : 3
COMPARTMENTS : 3
NODE_COORD_SECTION
1 50 50
2 99.91 46.82
3 87.14 76.15
4 49.83 52.56
5 50.01 90.65
6 94.57 45.59
7 64 6.36
8 37.59 24.37
9 88.16 17.33
10 8.53 5.06
11 60.88 96.41
DEMAND_SECTION
1 0 0 0
2 0 28 0
3 147 0 0
4 0 454 0
5 96 0 0
6 142 0 0
7 0 0 321
8 50 0 0
9 150 0 0
10 99 0 0
11 120 0 0
DEPOT_SECTION
1
EOF